p cnf 490 1664
c p weight 196 -1 0
c p weight -196 1 0
c p weight 198 6.12323399573676603586882014729198302312846062338790031898128063403419218957424163818359375E-17 0
c p weight -198 1 0
c p weight 199 1 0
c p weight -199 1 0
c p weight 200 -1 0
c p weight -200 1 0
c p weight 202 -1 0
c p weight -202 1 0
c p weight 205 -1 0
c p weight -205 1 0
c p weight 208 -1 0
c p weight -208 1 0
c p weight 211 -1 0
c p weight -211 1 0
c p weight 214 -1 0
c p weight -214 1 0
c p weight 217 -1 0
c p weight -217 1 0
c p weight 220 -1 0
c p weight -220 1 0
c p weight 223 -1 0
c p weight -223 1 0
c p weight 226 -1 0
c p weight -226 1 0
c p weight 229 -1 0
c p weight -229 1 0
c p weight 232 -1 0
c p weight -232 1 0
c p weight 235 -1 0
c p weight -235 1 0
c p weight 238 -1 0
c p weight -238 1 0
c p weight 241 -1 0
c p weight -241 1 0
c p weight 244 -1 0
c p weight -244 1 0
c p weight 247 -1 0
c p weight -247 1 0
c p weight 250 -1 0
c p weight -250 1 0
c p weight 253 -1 0
c p weight -253 1 0
c p weight 256 -1 0
c p weight -256 1 0
c p weight 259 -1 0
c p weight -259 1 0
c p weight 262 -1 0
c p weight -262 1 0
c p weight 265 -1 0
c p weight -265 1 0
c p weight 268 -1 0
c p weight -268 1 0
c p weight 271 -1 0
c p weight -271 1 0
c p weight 274 -1 0
c p weight -274 1 0
c p weight 277 -1 0
c p weight -277 1 0
c p weight 280 -1 0
c p weight -280 1 0
c p weight 283 -1 0
c p weight -283 1 0
c p weight 286 -1 0
c p weight -286 1 0
c p weight 289 -1 0
c p weight -289 1 0
c p weight 292 -1 0
c p weight -292 1 0
c p weight 295 -1 0
c p weight -295 1 0
c p weight 298 -1 0
c p weight -298 1 0
c p weight 301 -1 0
c p weight -301 1 0
c p weight 304 -1 0
c p weight -304 1 0
c p weight 307 -1 0
c p weight -307 1 0
c p weight 310 -1 0
c p weight -310 1 0
c p weight 313 -1 0
c p weight -313 1 0
c p weight 316 -1 0
c p weight -316 1 0
c p weight 319 -1 0
c p weight -319 1 0
c p weight 322 -1 0
c p weight -322 1 0
c p weight 325 -1 0
c p weight -325 1 0
c p weight 328 -1 0
c p weight -328 1 0
c p weight 331 -1 0
c p weight -331 1 0
c p weight 334 -1 0
c p weight -334 1 0
c p weight 337 -1 0
c p weight -337 1 0
c p weight 340 -1 0
c p weight -340 1 0
c p weight 343 -1 0
c p weight -343 1 0
c p weight 346 -1 0
c p weight -346 1 0
c p weight 349 -1 0
c p weight -349 1 0
c p weight 352 -1 0
c p weight -352 1 0
c p weight 355 -1 0
c p weight -355 1 0
c p weight 358 -1 0
c p weight -358 1 0
c p weight 361 -1 0
c p weight -361 1 0
c p weight 364 -1 0
c p weight -364 1 0
c p weight 367 -1 0
c p weight -367 1 0
c p weight 370 -1 0
c p weight -370 1 0
c p weight 373 -1 0
c p weight -373 1 0
c p weight 376 -1 0
c p weight -376 1 0
c p weight 379 -1 0
c p weight -379 1 0
c p weight 382 -1 0
c p weight -382 1 0
c p weight 385 -1 0
c p weight -385 1 0
c p weight 388 -1 0
c p weight -388 1 0
c p weight 391 -1 0
c p weight -391 1 0
c p weight 394 -1 0
c p weight -394 1 0
c p weight 397 -1 0
c p weight -397 1 0
c p weight 400 -1 0
c p weight -400 1 0
c p weight 403 -1 0
c p weight -403 1 0
c p weight 406 -1 0
c p weight -406 1 0
c p weight 409 -1 0
c p weight -409 1 0
c p weight 412 -1 0
c p weight -412 1 0
c p weight 415 -1 0
c p weight -415 1 0
c p weight 418 -1 0
c p weight -418 1 0
c p weight 421 -1 0
c p weight -421 1 0
c p weight 424 -1 0
c p weight -424 1 0
c p weight 427 -1 0
c p weight -427 1 0
c p weight 430 -1 0
c p weight -430 1 0
c p weight 433 -1 0
c p weight -433 1 0
c p weight 436 -1 0
c p weight -436 1 0
c p weight 439 -1 0
c p weight -439 1 0
c p weight 442 -1 0
c p weight -442 1 0
c p weight 445 -1 0
c p weight -445 1 0
c p weight 448 -1 0
c p weight -448 1 0
c p weight 451 -1 0
c p weight -451 1 0
c p weight 454 -1 0
c p weight -454 1 0
c p weight 457 -1 0
c p weight -457 1 0
c p weight 460 -1 0
c p weight -460 1 0
c p weight 463 -1 0
c p weight -463 1 0
c p weight 466 -1 0
c p weight -466 1 0
c p weight 469 -1 0
c p weight -469 1 0
c p weight 472 -1 0
c p weight -472 1 0
c p weight 475 -1 0
c p weight -475 1 0
c p weight 478 -1 0
c p weight -478 1 0
c p weight 481 -1 0
c p weight -481 1 0
c p weight 484 -1 0
c p weight -484 1 0
c p weight 487 -1 0
c p weight -487 1 0
c p weight 490 -1 0
c p weight -490 1 0
-193 0
-191 0
-189 0
-187 0
-185 0
-183 0
-181 0
-179 0
-177 0
-175 0
-173 0
-171 0
-169 0
-167 0
-165 0
-163 0
-161 0
-159 0
-157 0
-155 0
-153 0
-151 0
-149 0
-147 0
-145 0
-143 0
-141 0
-139 0
-137 0
-135 0
-133 0
-131 0
-129 0
-127 0
-125 0
-123 0
-121 0
-119 0
-117 0
-115 0
-113 0
-111 0
-109 0
-107 0
-105 0
-103 0
-101 0
-99 0
-97 0
-95 0
-93 0
-91 0
-89 0
-87 0
-85 0
-83 0
-81 0
-79 0
-77 0
-75 0
-73 0
-71 0
-69 0
-67 0
-65 0
-63 0
-61 0
-59 0
-57 0
-55 0
-53 0
-51 0
-49 0
-47 0
-45 0
-43 0
-41 0
-39 0
-37 0
-35 0
-33 0
-31 0
-29 0
-27 0
-25 0
-23 0
-21 0
-19 0
-17 0
-15 0
-13 0
-11 0
-9 0
-7 0
-5 0
-3 0
-1 0
195 193 -194 0
195 -193 194 0
-195 193 194 0
-195 -193 -194 0
-196 193 0
-196 194 0
196 -193 -194 0
197 -193 195 0
-197 193 195 0
-198 195 0
197 -198 -193 0
-197 -198 193 0
197 198 193 -195 0
-197 198 -193 -195 0
-199 195 0
197 -199 193 0
-197 -199 -193 0
197 199 -193 -195 0
-197 199 193 -195 0
-200 197 0
-200 195 0
-200 -193 0
200 -197 193 -195 0
201 197 -195 0
201 -197 195 0
-201 197 195 0
-201 -197 -195 0
-202 197 0
-202 195 0
202 -197 -195 0
203 197 -191 0
203 -197 191 0
-203 197 191 0
-203 -197 -191 0
204 201 -192 0
204 -201 192 0
-204 201 192 0
-204 -201 -192 0
-205 197 0
-205 192 0
-205 191 -201 0
-205 -191 201 0
205 -197 191 201 -192 0
205 -197 -191 -201 -192 0
206 203 -189 0
206 -203 189 0
-206 203 189 0
-206 -203 -189 0
207 192 -190 0
207 -192 190 0
-207 192 190 0
-207 -192 -190 0
-208 203 0
-208 190 0
-208 189 -192 0
-208 -189 192 0
208 -203 189 192 -190 0
208 -203 -189 -192 -190 0
209 206 -187 0
209 -206 187 0
-209 206 187 0
-209 -206 -187 0
210 190 -188 0
210 -190 188 0
-210 190 188 0
-210 -190 -188 0
-211 206 0
-211 188 0
-211 187 -190 0
-211 -187 190 0
211 -206 187 190 -188 0
211 -206 -187 -190 -188 0
212 209 -185 0
212 -209 185 0
-212 209 185 0
-212 -209 -185 0
213 188 -186 0
213 -188 186 0
-213 188 186 0
-213 -188 -186 0
-214 209 0
-214 186 0
-214 185 -188 0
-214 -185 188 0
214 -209 185 188 -186 0
214 -209 -185 -188 -186 0
215 212 -183 0
215 -212 183 0
-215 212 183 0
-215 -212 -183 0
216 186 -184 0
216 -186 184 0
-216 186 184 0
-216 -186 -184 0
-217 212 0
-217 184 0
-217 183 -186 0
-217 -183 186 0
217 -212 183 186 -184 0
217 -212 -183 -186 -184 0
218 215 -181 0
218 -215 181 0
-218 215 181 0
-218 -215 -181 0
219 184 -182 0
219 -184 182 0
-219 184 182 0
-219 -184 -182 0
-220 215 0
-220 182 0
-220 181 -184 0
-220 -181 184 0
220 -215 181 184 -182 0
220 -215 -181 -184 -182 0
221 218 -179 0
221 -218 179 0
-221 218 179 0
-221 -218 -179 0
222 182 -180 0
222 -182 180 0
-222 182 180 0
-222 -182 -180 0
-223 218 0
-223 180 0
-223 179 -182 0
-223 -179 182 0
223 -218 179 182 -180 0
223 -218 -179 -182 -180 0
224 221 -177 0
224 -221 177 0
-224 221 177 0
-224 -221 -177 0
225 180 -178 0
225 -180 178 0
-225 180 178 0
-225 -180 -178 0
-226 221 0
-226 178 0
-226 177 -180 0
-226 -177 180 0
226 -221 177 180 -178 0
226 -221 -177 -180 -178 0
227 224 -175 0
227 -224 175 0
-227 224 175 0
-227 -224 -175 0
228 178 -176 0
228 -178 176 0
-228 178 176 0
-228 -178 -176 0
-229 224 0
-229 176 0
-229 175 -178 0
-229 -175 178 0
229 -224 175 178 -176 0
229 -224 -175 -178 -176 0
230 227 -173 0
230 -227 173 0
-230 227 173 0
-230 -227 -173 0
231 176 -174 0
231 -176 174 0
-231 176 174 0
-231 -176 -174 0
-232 227 0
-232 174 0
-232 173 -176 0
-232 -173 176 0
232 -227 173 176 -174 0
232 -227 -173 -176 -174 0
233 230 -171 0
233 -230 171 0
-233 230 171 0
-233 -230 -171 0
234 174 -172 0
234 -174 172 0
-234 174 172 0
-234 -174 -172 0
-235 230 0
-235 172 0
-235 171 -174 0
-235 -171 174 0
235 -230 171 174 -172 0
235 -230 -171 -174 -172 0
236 233 -169 0
236 -233 169 0
-236 233 169 0
-236 -233 -169 0
237 172 -170 0
237 -172 170 0
-237 172 170 0
-237 -172 -170 0
-238 233 0
-238 170 0
-238 169 -172 0
-238 -169 172 0
238 -233 169 172 -170 0
238 -233 -169 -172 -170 0
239 236 -167 0
239 -236 167 0
-239 236 167 0
-239 -236 -167 0
240 170 -168 0
240 -170 168 0
-240 170 168 0
-240 -170 -168 0
-241 236 0
-241 168 0
-241 167 -170 0
-241 -167 170 0
241 -236 167 170 -168 0
241 -236 -167 -170 -168 0
242 239 -165 0
242 -239 165 0
-242 239 165 0
-242 -239 -165 0
243 168 -166 0
243 -168 166 0
-243 168 166 0
-243 -168 -166 0
-244 239 0
-244 166 0
-244 165 -168 0
-244 -165 168 0
244 -239 165 168 -166 0
244 -239 -165 -168 -166 0
245 242 -163 0
245 -242 163 0
-245 242 163 0
-245 -242 -163 0
246 166 -164 0
246 -166 164 0
-246 166 164 0
-246 -166 -164 0
-247 242 0
-247 164 0
-247 163 -166 0
-247 -163 166 0
247 -242 163 166 -164 0
247 -242 -163 -166 -164 0
248 245 -161 0
248 -245 161 0
-248 245 161 0
-248 -245 -161 0
249 164 -162 0
249 -164 162 0
-249 164 162 0
-249 -164 -162 0
-250 245 0
-250 162 0
-250 161 -164 0
-250 -161 164 0
250 -245 161 164 -162 0
250 -245 -161 -164 -162 0
251 248 -159 0
251 -248 159 0
-251 248 159 0
-251 -248 -159 0
252 162 -160 0
252 -162 160 0
-252 162 160 0
-252 -162 -160 0
-253 248 0
-253 160 0
-253 159 -162 0
-253 -159 162 0
253 -248 159 162 -160 0
253 -248 -159 -162 -160 0
254 251 -157 0
254 -251 157 0
-254 251 157 0
-254 -251 -157 0
255 160 -158 0
255 -160 158 0
-255 160 158 0
-255 -160 -158 0
-256 251 0
-256 158 0
-256 157 -160 0
-256 -157 160 0
256 -251 157 160 -158 0
256 -251 -157 -160 -158 0
257 254 -155 0
257 -254 155 0
-257 254 155 0
-257 -254 -155 0
258 158 -156 0
258 -158 156 0
-258 158 156 0
-258 -158 -156 0
-259 254 0
-259 156 0
-259 155 -158 0
-259 -155 158 0
259 -254 155 158 -156 0
259 -254 -155 -158 -156 0
260 257 -153 0
260 -257 153 0
-260 257 153 0
-260 -257 -153 0
261 156 -154 0
261 -156 154 0
-261 156 154 0
-261 -156 -154 0
-262 257 0
-262 154 0
-262 153 -156 0
-262 -153 156 0
262 -257 153 156 -154 0
262 -257 -153 -156 -154 0
263 260 -151 0
263 -260 151 0
-263 260 151 0
-263 -260 -151 0
264 154 -152 0
264 -154 152 0
-264 154 152 0
-264 -154 -152 0
-265 260 0
-265 152 0
-265 151 -154 0
-265 -151 154 0
265 -260 151 154 -152 0
265 -260 -151 -154 -152 0
266 263 -149 0
266 -263 149 0
-266 263 149 0
-266 -263 -149 0
267 152 -150 0
267 -152 150 0
-267 152 150 0
-267 -152 -150 0
-268 263 0
-268 150 0
-268 149 -152 0
-268 -149 152 0
268 -263 149 152 -150 0
268 -263 -149 -152 -150 0
269 266 -147 0
269 -266 147 0
-269 266 147 0
-269 -266 -147 0
270 150 -148 0
270 -150 148 0
-270 150 148 0
-270 -150 -148 0
-271 266 0
-271 148 0
-271 147 -150 0
-271 -147 150 0
271 -266 147 150 -148 0
271 -266 -147 -150 -148 0
272 269 -145 0
272 -269 145 0
-272 269 145 0
-272 -269 -145 0
273 148 -146 0
273 -148 146 0
-273 148 146 0
-273 -148 -146 0
-274 269 0
-274 146 0
-274 145 -148 0
-274 -145 148 0
274 -269 145 148 -146 0
274 -269 -145 -148 -146 0
275 272 -143 0
275 -272 143 0
-275 272 143 0
-275 -272 -143 0
276 146 -144 0
276 -146 144 0
-276 146 144 0
-276 -146 -144 0
-277 272 0
-277 144 0
-277 143 -146 0
-277 -143 146 0
277 -272 143 146 -144 0
277 -272 -143 -146 -144 0
278 275 -141 0
278 -275 141 0
-278 275 141 0
-278 -275 -141 0
279 144 -142 0
279 -144 142 0
-279 144 142 0
-279 -144 -142 0
-280 275 0
-280 142 0
-280 141 -144 0
-280 -141 144 0
280 -275 141 144 -142 0
280 -275 -141 -144 -142 0
281 278 -139 0
281 -278 139 0
-281 278 139 0
-281 -278 -139 0
282 142 -140 0
282 -142 140 0
-282 142 140 0
-282 -142 -140 0
-283 278 0
-283 140 0
-283 139 -142 0
-283 -139 142 0
283 -278 139 142 -140 0
283 -278 -139 -142 -140 0
284 281 -137 0
284 -281 137 0
-284 281 137 0
-284 -281 -137 0
285 140 -138 0
285 -140 138 0
-285 140 138 0
-285 -140 -138 0
-286 281 0
-286 138 0
-286 137 -140 0
-286 -137 140 0
286 -281 137 140 -138 0
286 -281 -137 -140 -138 0
287 284 -135 0
287 -284 135 0
-287 284 135 0
-287 -284 -135 0
288 138 -136 0
288 -138 136 0
-288 138 136 0
-288 -138 -136 0
-289 284 0
-289 136 0
-289 135 -138 0
-289 -135 138 0
289 -284 135 138 -136 0
289 -284 -135 -138 -136 0
290 287 -133 0
290 -287 133 0
-290 287 133 0
-290 -287 -133 0
291 136 -134 0
291 -136 134 0
-291 136 134 0
-291 -136 -134 0
-292 287 0
-292 134 0
-292 133 -136 0
-292 -133 136 0
292 -287 133 136 -134 0
292 -287 -133 -136 -134 0
293 290 -131 0
293 -290 131 0
-293 290 131 0
-293 -290 -131 0
294 134 -132 0
294 -134 132 0
-294 134 132 0
-294 -134 -132 0
-295 290 0
-295 132 0
-295 131 -134 0
-295 -131 134 0
295 -290 131 134 -132 0
295 -290 -131 -134 -132 0
296 293 -129 0
296 -293 129 0
-296 293 129 0
-296 -293 -129 0
297 132 -130 0
297 -132 130 0
-297 132 130 0
-297 -132 -130 0
-298 293 0
-298 130 0
-298 129 -132 0
-298 -129 132 0
298 -293 129 132 -130 0
298 -293 -129 -132 -130 0
299 296 -127 0
299 -296 127 0
-299 296 127 0
-299 -296 -127 0
300 130 -128 0
300 -130 128 0
-300 130 128 0
-300 -130 -128 0
-301 296 0
-301 128 0
-301 127 -130 0
-301 -127 130 0
301 -296 127 130 -128 0
301 -296 -127 -130 -128 0
302 299 -125 0
302 -299 125 0
-302 299 125 0
-302 -299 -125 0
303 128 -126 0
303 -128 126 0
-303 128 126 0
-303 -128 -126 0
-304 299 0
-304 126 0
-304 125 -128 0
-304 -125 128 0
304 -299 125 128 -126 0
304 -299 -125 -128 -126 0
305 302 -123 0
305 -302 123 0
-305 302 123 0
-305 -302 -123 0
306 126 -124 0
306 -126 124 0
-306 126 124 0
-306 -126 -124 0
-307 302 0
-307 124 0
-307 123 -126 0
-307 -123 126 0
307 -302 123 126 -124 0
307 -302 -123 -126 -124 0
308 305 -121 0
308 -305 121 0
-308 305 121 0
-308 -305 -121 0
309 124 -122 0
309 -124 122 0
-309 124 122 0
-309 -124 -122 0
-310 305 0
-310 122 0
-310 121 -124 0
-310 -121 124 0
310 -305 121 124 -122 0
310 -305 -121 -124 -122 0
311 308 -119 0
311 -308 119 0
-311 308 119 0
-311 -308 -119 0
312 122 -120 0
312 -122 120 0
-312 122 120 0
-312 -122 -120 0
-313 308 0
-313 120 0
-313 119 -122 0
-313 -119 122 0
313 -308 119 122 -120 0
313 -308 -119 -122 -120 0
314 311 -117 0
314 -311 117 0
-314 311 117 0
-314 -311 -117 0
315 120 -118 0
315 -120 118 0
-315 120 118 0
-315 -120 -118 0
-316 311 0
-316 118 0
-316 117 -120 0
-316 -117 120 0
316 -311 117 120 -118 0
316 -311 -117 -120 -118 0
317 314 -115 0
317 -314 115 0
-317 314 115 0
-317 -314 -115 0
318 118 -116 0
318 -118 116 0
-318 118 116 0
-318 -118 -116 0
-319 314 0
-319 116 0
-319 115 -118 0
-319 -115 118 0
319 -314 115 118 -116 0
319 -314 -115 -118 -116 0
320 317 -113 0
320 -317 113 0
-320 317 113 0
-320 -317 -113 0
321 116 -114 0
321 -116 114 0
-321 116 114 0
-321 -116 -114 0
-322 317 0
-322 114 0
-322 113 -116 0
-322 -113 116 0
322 -317 113 116 -114 0
322 -317 -113 -116 -114 0
323 320 -111 0
323 -320 111 0
-323 320 111 0
-323 -320 -111 0
324 114 -112 0
324 -114 112 0
-324 114 112 0
-324 -114 -112 0
-325 320 0
-325 112 0
-325 111 -114 0
-325 -111 114 0
325 -320 111 114 -112 0
325 -320 -111 -114 -112 0
326 323 -109 0
326 -323 109 0
-326 323 109 0
-326 -323 -109 0
327 112 -110 0
327 -112 110 0
-327 112 110 0
-327 -112 -110 0
-328 323 0
-328 110 0
-328 109 -112 0
-328 -109 112 0
328 -323 109 112 -110 0
328 -323 -109 -112 -110 0
329 326 -107 0
329 -326 107 0
-329 326 107 0
-329 -326 -107 0
330 110 -108 0
330 -110 108 0
-330 110 108 0
-330 -110 -108 0
-331 326 0
-331 108 0
-331 107 -110 0
-331 -107 110 0
331 -326 107 110 -108 0
331 -326 -107 -110 -108 0
332 329 -105 0
332 -329 105 0
-332 329 105 0
-332 -329 -105 0
333 108 -106 0
333 -108 106 0
-333 108 106 0
-333 -108 -106 0
-334 329 0
-334 106 0
-334 105 -108 0
-334 -105 108 0
334 -329 105 108 -106 0
334 -329 -105 -108 -106 0
335 332 -103 0
335 -332 103 0
-335 332 103 0
-335 -332 -103 0
336 106 -104 0
336 -106 104 0
-336 106 104 0
-336 -106 -104 0
-337 332 0
-337 104 0
-337 103 -106 0
-337 -103 106 0
337 -332 103 106 -104 0
337 -332 -103 -106 -104 0
338 335 -101 0
338 -335 101 0
-338 335 101 0
-338 -335 -101 0
339 104 -102 0
339 -104 102 0
-339 104 102 0
-339 -104 -102 0
-340 335 0
-340 102 0
-340 101 -104 0
-340 -101 104 0
340 -335 101 104 -102 0
340 -335 -101 -104 -102 0
341 338 -99 0
341 -338 99 0
-341 338 99 0
-341 -338 -99 0
342 102 -100 0
342 -102 100 0
-342 102 100 0
-342 -102 -100 0
-343 338 0
-343 100 0
-343 99 -102 0
-343 -99 102 0
343 -338 99 102 -100 0
343 -338 -99 -102 -100 0
344 341 -97 0
344 -341 97 0
-344 341 97 0
-344 -341 -97 0
345 100 -98 0
345 -100 98 0
-345 100 98 0
-345 -100 -98 0
-346 341 0
-346 98 0
-346 97 -100 0
-346 -97 100 0
346 -341 97 100 -98 0
346 -341 -97 -100 -98 0
347 344 -95 0
347 -344 95 0
-347 344 95 0
-347 -344 -95 0
348 98 -96 0
348 -98 96 0
-348 98 96 0
-348 -98 -96 0
-349 344 0
-349 96 0
-349 95 -98 0
-349 -95 98 0
349 -344 95 98 -96 0
349 -344 -95 -98 -96 0
350 347 -93 0
350 -347 93 0
-350 347 93 0
-350 -347 -93 0
351 96 -94 0
351 -96 94 0
-351 96 94 0
-351 -96 -94 0
-352 347 0
-352 94 0
-352 93 -96 0
-352 -93 96 0
352 -347 93 96 -94 0
352 -347 -93 -96 -94 0
353 350 -91 0
353 -350 91 0
-353 350 91 0
-353 -350 -91 0
354 94 -92 0
354 -94 92 0
-354 94 92 0
-354 -94 -92 0
-355 350 0
-355 92 0
-355 91 -94 0
-355 -91 94 0
355 -350 91 94 -92 0
355 -350 -91 -94 -92 0
356 353 -89 0
356 -353 89 0
-356 353 89 0
-356 -353 -89 0
357 92 -90 0
357 -92 90 0
-357 92 90 0
-357 -92 -90 0
-358 353 0
-358 90 0
-358 89 -92 0
-358 -89 92 0
358 -353 89 92 -90 0
358 -353 -89 -92 -90 0
359 356 -87 0
359 -356 87 0
-359 356 87 0
-359 -356 -87 0
360 90 -88 0
360 -90 88 0
-360 90 88 0
-360 -90 -88 0
-361 356 0
-361 88 0
-361 87 -90 0
-361 -87 90 0
361 -356 87 90 -88 0
361 -356 -87 -90 -88 0
362 359 -85 0
362 -359 85 0
-362 359 85 0
-362 -359 -85 0
363 88 -86 0
363 -88 86 0
-363 88 86 0
-363 -88 -86 0
-364 359 0
-364 86 0
-364 85 -88 0
-364 -85 88 0
364 -359 85 88 -86 0
364 -359 -85 -88 -86 0
365 362 -83 0
365 -362 83 0
-365 362 83 0
-365 -362 -83 0
366 86 -84 0
366 -86 84 0
-366 86 84 0
-366 -86 -84 0
-367 362 0
-367 84 0
-367 83 -86 0
-367 -83 86 0
367 -362 83 86 -84 0
367 -362 -83 -86 -84 0
368 365 -81 0
368 -365 81 0
-368 365 81 0
-368 -365 -81 0
369 84 -82 0
369 -84 82 0
-369 84 82 0
-369 -84 -82 0
-370 365 0
-370 82 0
-370 81 -84 0
-370 -81 84 0
370 -365 81 84 -82 0
370 -365 -81 -84 -82 0
371 368 -79 0
371 -368 79 0
-371 368 79 0
-371 -368 -79 0
372 82 -80 0
372 -82 80 0
-372 82 80 0
-372 -82 -80 0
-373 368 0
-373 80 0
-373 79 -82 0
-373 -79 82 0
373 -368 79 82 -80 0
373 -368 -79 -82 -80 0
374 371 -77 0
374 -371 77 0
-374 371 77 0
-374 -371 -77 0
375 80 -78 0
375 -80 78 0
-375 80 78 0
-375 -80 -78 0
-376 371 0
-376 78 0
-376 77 -80 0
-376 -77 80 0
376 -371 77 80 -78 0
376 -371 -77 -80 -78 0
377 374 -75 0
377 -374 75 0
-377 374 75 0
-377 -374 -75 0
378 78 -76 0
378 -78 76 0
-378 78 76 0
-378 -78 -76 0
-379 374 0
-379 76 0
-379 75 -78 0
-379 -75 78 0
379 -374 75 78 -76 0
379 -374 -75 -78 -76 0
380 377 -73 0
380 -377 73 0
-380 377 73 0
-380 -377 -73 0
381 76 -74 0
381 -76 74 0
-381 76 74 0
-381 -76 -74 0
-382 377 0
-382 74 0
-382 73 -76 0
-382 -73 76 0
382 -377 73 76 -74 0
382 -377 -73 -76 -74 0
383 380 -71 0
383 -380 71 0
-383 380 71 0
-383 -380 -71 0
384 74 -72 0
384 -74 72 0
-384 74 72 0
-384 -74 -72 0
-385 380 0
-385 72 0
-385 71 -74 0
-385 -71 74 0
385 -380 71 74 -72 0
385 -380 -71 -74 -72 0
386 383 -69 0
386 -383 69 0
-386 383 69 0
-386 -383 -69 0
387 72 -70 0
387 -72 70 0
-387 72 70 0
-387 -72 -70 0
-388 383 0
-388 70 0
-388 69 -72 0
-388 -69 72 0
388 -383 69 72 -70 0
388 -383 -69 -72 -70 0
389 386 -67 0
389 -386 67 0
-389 386 67 0
-389 -386 -67 0
390 70 -68 0
390 -70 68 0
-390 70 68 0
-390 -70 -68 0
-391 386 0
-391 68 0
-391 67 -70 0
-391 -67 70 0
391 -386 67 70 -68 0
391 -386 -67 -70 -68 0
392 389 -65 0
392 -389 65 0
-392 389 65 0
-392 -389 -65 0
393 68 -66 0
393 -68 66 0
-393 68 66 0
-393 -68 -66 0
-394 389 0
-394 66 0
-394 65 -68 0
-394 -65 68 0
394 -389 65 68 -66 0
394 -389 -65 -68 -66 0
395 392 -63 0
395 -392 63 0
-395 392 63 0
-395 -392 -63 0
396 66 -64 0
396 -66 64 0
-396 66 64 0
-396 -66 -64 0
-397 392 0
-397 64 0
-397 63 -66 0
-397 -63 66 0
397 -392 63 66 -64 0
397 -392 -63 -66 -64 0
398 395 -61 0
398 -395 61 0
-398 395 61 0
-398 -395 -61 0
399 64 -62 0
399 -64 62 0
-399 64 62 0
-399 -64 -62 0
-400 395 0
-400 62 0
-400 61 -64 0
-400 -61 64 0
400 -395 61 64 -62 0
400 -395 -61 -64 -62 0
401 398 -59 0
401 -398 59 0
-401 398 59 0
-401 -398 -59 0
402 62 -60 0
402 -62 60 0
-402 62 60 0
-402 -62 -60 0
-403 398 0
-403 60 0
-403 59 -62 0
-403 -59 62 0
403 -398 59 62 -60 0
403 -398 -59 -62 -60 0
404 401 -57 0
404 -401 57 0
-404 401 57 0
-404 -401 -57 0
405 60 -58 0
405 -60 58 0
-405 60 58 0
-405 -60 -58 0
-406 401 0
-406 58 0
-406 57 -60 0
-406 -57 60 0
406 -401 57 60 -58 0
406 -401 -57 -60 -58 0
407 404 -55 0
407 -404 55 0
-407 404 55 0
-407 -404 -55 0
408 58 -56 0
408 -58 56 0
-408 58 56 0
-408 -58 -56 0
-409 404 0
-409 56 0
-409 55 -58 0
-409 -55 58 0
409 -404 55 58 -56 0
409 -404 -55 -58 -56 0
410 407 -53 0
410 -407 53 0
-410 407 53 0
-410 -407 -53 0
411 56 -54 0
411 -56 54 0
-411 56 54 0
-411 -56 -54 0
-412 407 0
-412 54 0
-412 53 -56 0
-412 -53 56 0
412 -407 53 56 -54 0
412 -407 -53 -56 -54 0
413 410 -51 0
413 -410 51 0
-413 410 51 0
-413 -410 -51 0
414 54 -52 0
414 -54 52 0
-414 54 52 0
-414 -54 -52 0
-415 410 0
-415 52 0
-415 51 -54 0
-415 -51 54 0
415 -410 51 54 -52 0
415 -410 -51 -54 -52 0
416 413 -49 0
416 -413 49 0
-416 413 49 0
-416 -413 -49 0
417 52 -50 0
417 -52 50 0
-417 52 50 0
-417 -52 -50 0
-418 413 0
-418 50 0
-418 49 -52 0
-418 -49 52 0
418 -413 49 52 -50 0
418 -413 -49 -52 -50 0
419 416 -47 0
419 -416 47 0
-419 416 47 0
-419 -416 -47 0
420 50 -48 0
420 -50 48 0
-420 50 48 0
-420 -50 -48 0
-421 416 0
-421 48 0
-421 47 -50 0
-421 -47 50 0
421 -416 47 50 -48 0
421 -416 -47 -50 -48 0
422 419 -45 0
422 -419 45 0
-422 419 45 0
-422 -419 -45 0
423 48 -46 0
423 -48 46 0
-423 48 46 0
-423 -48 -46 0
-424 419 0
-424 46 0
-424 45 -48 0
-424 -45 48 0
424 -419 45 48 -46 0
424 -419 -45 -48 -46 0
425 422 -43 0
425 -422 43 0
-425 422 43 0
-425 -422 -43 0
426 46 -44 0
426 -46 44 0
-426 46 44 0
-426 -46 -44 0
-427 422 0
-427 44 0
-427 43 -46 0
-427 -43 46 0
427 -422 43 46 -44 0
427 -422 -43 -46 -44 0
428 425 -41 0
428 -425 41 0
-428 425 41 0
-428 -425 -41 0
429 44 -42 0
429 -44 42 0
-429 44 42 0
-429 -44 -42 0
-430 425 0
-430 42 0
-430 41 -44 0
-430 -41 44 0
430 -425 41 44 -42 0
430 -425 -41 -44 -42 0
431 428 -39 0
431 -428 39 0
-431 428 39 0
-431 -428 -39 0
432 42 -40 0
432 -42 40 0
-432 42 40 0
-432 -42 -40 0
-433 428 0
-433 40 0
-433 39 -42 0
-433 -39 42 0
433 -428 39 42 -40 0
433 -428 -39 -42 -40 0
434 431 -37 0
434 -431 37 0
-434 431 37 0
-434 -431 -37 0
435 40 -38 0
435 -40 38 0
-435 40 38 0
-435 -40 -38 0
-436 431 0
-436 38 0
-436 37 -40 0
-436 -37 40 0
436 -431 37 40 -38 0
436 -431 -37 -40 -38 0
437 434 -35 0
437 -434 35 0
-437 434 35 0
-437 -434 -35 0
438 38 -36 0
438 -38 36 0
-438 38 36 0
-438 -38 -36 0
-439 434 0
-439 36 0
-439 35 -38 0
-439 -35 38 0
439 -434 35 38 -36 0
439 -434 -35 -38 -36 0
440 437 -33 0
440 -437 33 0
-440 437 33 0
-440 -437 -33 0
441 36 -34 0
441 -36 34 0
-441 36 34 0
-441 -36 -34 0
-442 437 0
-442 34 0
-442 33 -36 0
-442 -33 36 0
442 -437 33 36 -34 0
442 -437 -33 -36 -34 0
443 440 -31 0
443 -440 31 0
-443 440 31 0
-443 -440 -31 0
444 34 -32 0
444 -34 32 0
-444 34 32 0
-444 -34 -32 0
-445 440 0
-445 32 0
-445 31 -34 0
-445 -31 34 0
445 -440 31 34 -32 0
445 -440 -31 -34 -32 0
446 443 -29 0
446 -443 29 0
-446 443 29 0
-446 -443 -29 0
447 32 -30 0
447 -32 30 0
-447 32 30 0
-447 -32 -30 0
-448 443 0
-448 30 0
-448 29 -32 0
-448 -29 32 0
448 -443 29 32 -30 0
448 -443 -29 -32 -30 0
449 446 -27 0
449 -446 27 0
-449 446 27 0
-449 -446 -27 0
450 30 -28 0
450 -30 28 0
-450 30 28 0
-450 -30 -28 0
-451 446 0
-451 28 0
-451 27 -30 0
-451 -27 30 0
451 -446 27 30 -28 0
451 -446 -27 -30 -28 0
452 449 -25 0
452 -449 25 0
-452 449 25 0
-452 -449 -25 0
453 28 -26 0
453 -28 26 0
-453 28 26 0
-453 -28 -26 0
-454 449 0
-454 26 0
-454 25 -28 0
-454 -25 28 0
454 -449 25 28 -26 0
454 -449 -25 -28 -26 0
455 452 -23 0
455 -452 23 0
-455 452 23 0
-455 -452 -23 0
456 26 -24 0
456 -26 24 0
-456 26 24 0
-456 -26 -24 0
-457 452 0
-457 24 0
-457 23 -26 0
-457 -23 26 0
457 -452 23 26 -24 0
457 -452 -23 -26 -24 0
458 455 -21 0
458 -455 21 0
-458 455 21 0
-458 -455 -21 0
459 24 -22 0
459 -24 22 0
-459 24 22 0
-459 -24 -22 0
-460 455 0
-460 22 0
-460 21 -24 0
-460 -21 24 0
460 -455 21 24 -22 0
460 -455 -21 -24 -22 0
461 458 -19 0
461 -458 19 0
-461 458 19 0
-461 -458 -19 0
462 22 -20 0
462 -22 20 0
-462 22 20 0
-462 -22 -20 0
-463 458 0
-463 20 0
-463 19 -22 0
-463 -19 22 0
463 -458 19 22 -20 0
463 -458 -19 -22 -20 0
464 461 -17 0
464 -461 17 0
-464 461 17 0
-464 -461 -17 0
465 20 -18 0
465 -20 18 0
-465 20 18 0
-465 -20 -18 0
-466 461 0
-466 18 0
-466 17 -20 0
-466 -17 20 0
466 -461 17 20 -18 0
466 -461 -17 -20 -18 0
467 464 -15 0
467 -464 15 0
-467 464 15 0
-467 -464 -15 0
468 18 -16 0
468 -18 16 0
-468 18 16 0
-468 -18 -16 0
-469 464 0
-469 16 0
-469 15 -18 0
-469 -15 18 0
469 -464 15 18 -16 0
469 -464 -15 -18 -16 0
470 467 -13 0
470 -467 13 0
-470 467 13 0
-470 -467 -13 0
471 16 -14 0
471 -16 14 0
-471 16 14 0
-471 -16 -14 0
-472 467 0
-472 14 0
-472 13 -16 0
-472 -13 16 0
472 -467 13 16 -14 0
472 -467 -13 -16 -14 0
473 470 -11 0
473 -470 11 0
-473 470 11 0
-473 -470 -11 0
474 14 -12 0
474 -14 12 0
-474 14 12 0
-474 -14 -12 0
-475 470 0
-475 12 0
-475 11 -14 0
-475 -11 14 0
475 -470 11 14 -12 0
475 -470 -11 -14 -12 0
476 473 -9 0
476 -473 9 0
-476 473 9 0
-476 -473 -9 0
477 12 -10 0
477 -12 10 0
-477 12 10 0
-477 -12 -10 0
-478 473 0
-478 10 0
-478 9 -12 0
-478 -9 12 0
478 -473 9 12 -10 0
478 -473 -9 -12 -10 0
479 476 -7 0
479 -476 7 0
-479 476 7 0
-479 -476 -7 0
480 10 -8 0
480 -10 8 0
-480 10 8 0
-480 -10 -8 0
-481 476 0
-481 8 0
-481 7 -10 0
-481 -7 10 0
481 -476 7 10 -8 0
481 -476 -7 -10 -8 0
482 479 -5 0
482 -479 5 0
-482 479 5 0
-482 -479 -5 0
483 8 -6 0
483 -8 6 0
-483 8 6 0
-483 -8 -6 0
-484 479 0
-484 6 0
-484 5 -8 0
-484 -5 8 0
484 -479 5 8 -6 0
484 -479 -5 -8 -6 0
485 482 -3 0
485 -482 3 0
-485 482 3 0
-485 -482 -3 0
486 6 -4 0
486 -6 4 0
-486 6 4 0
-486 -6 -4 0
-487 482 0
-487 4 0
-487 3 -6 0
-487 -3 6 0
487 -482 3 6 -4 0
487 -482 -3 -6 -4 0
488 485 -1 0
488 -485 1 0
-488 485 1 0
-488 -485 -1 0
489 4 -2 0
489 -4 2 0
-489 4 2 0
-489 -4 -2 0
-490 485 0
-490 2 0
-490 1 -4 0
-490 -1 4 0
490 -485 1 4 -2 0
490 -485 -1 -4 -2 0
-488 0
-485 0
-489 0
-482 0
-486 0
-479 0
-483 0
-476 0
-480 0
-473 0
-477 0
-470 0
-474 0
-467 0
-471 0
-464 0
-468 0
-461 0
-465 0
-458 0
-462 0
-455 0
-459 0
-452 0
-456 0
-449 0
-453 0
-446 0
-450 0
-443 0
-447 0
-440 0
-444 0
-437 0
-441 0
-434 0
-438 0
-431 0
-435 0
-428 0
-432 0
-425 0
-429 0
-422 0
-426 0
-419 0
-423 0
-416 0
-420 0
-413 0
-417 0
-410 0
-414 0
-407 0
-411 0
-404 0
-408 0
-401 0
-405 0
-398 0
-402 0
-395 0
-399 0
-392 0
-396 0
-389 0
-393 0
-386 0
-390 0
-383 0
-387 0
-380 0
-384 0
-377 0
-381 0
-374 0
-378 0
-371 0
-375 0
-368 0
-372 0
-365 0
-369 0
-362 0
-366 0
-359 0
-363 0
-356 0
-360 0
-353 0
-357 0
-350 0
-354 0
-347 0
-351 0
-344 0
-348 0
-341 0
-345 0
-338 0
-342 0
-335 0
-339 0
-332 0
-336 0
-329 0
-333 0
-326 0
-330 0
-323 0
-327 0
-320 0
-324 0
-317 0
-321 0
-314 0
-318 0
-311 0
-315 0
-308 0
-312 0
-305 0
-309 0
-302 0
-306 0
-299 0
-303 0
-296 0
-300 0
-293 0
-297 0
-290 0
-294 0
-287 0
-291 0
-284 0
-288 0
-281 0
-285 0
-278 0
-282 0
-275 0
-279 0
-272 0
-276 0
-269 0
-273 0
-266 0
-270 0
-263 0
-267 0
-260 0
-264 0
-257 0
-261 0
-254 0
-258 0
-251 0
-255 0
-248 0
-252 0
-245 0
-249 0
-242 0
-246 0
-239 0
-243 0
-236 0
-240 0
-233 0
-237 0
-230 0
-234 0
-227 0
-231 0
-224 0
-228 0
-221 0
-225 0
-218 0
-222 0
-215 0
-219 0
-212 0
-216 0
-209 0
-213 0
-206 0
-210 0
-203 0
-207 0
-197 0
-204 0
